(set-logic QF_S)
(declare-fun var0 () String)
(assert (str.in.re var0 (re.++ (re.union (re.+ (str.to.re "00")) (re.+ (str.to.re "11"))) (re.++ (re.* (re.+ (str.to.re "222"))) (re.++ (re.union (re.+ (str.to.re "33")) (re.+ (str.to.re "444"))) (re.++ (re.union (re.union (str.to.re "555") (str.to.re "66")) (re.union (str.to.re "77") (str.to.re "888"))) (re.++ (re.* (re.* (str.to.re "99"))) (re.++ (re.+ (re.* (str.to.re "a"))) (re.++ (re.union (re.* (str.to.re "bbb")) (re.* (str.to.re "cc"))) (re.++ (re.union (re.+ (str.to.re "dd")) (re.+ (str.to.re "e"))) (re.++ (re.+ (re.+ (str.to.re "fff"))) (re.++ (re.* (re.+ (str.to.re "gg"))) (re.++ (re.* (re.union (str.to.re "hhh") (str.to.re "i"))) (re.++ (re.+ (re.+ (str.to.re "jj"))) (re.++ (re.union (re.* (str.to.re "kkk")) (re.* (str.to.re "l"))) (re.++ (re.+ (re.union (str.to.re "mm") (str.to.re "n"))) (re.++ (re.union (re.union (str.to.re "o") (str.to.re "ppp")) (re.union (str.to.re "q") (str.to.re "rr"))) (re.++ (re.* (re.* (str.to.re "s"))) (re.++ (re.* (re.+ (str.to.re "ttt"))) (re.++ (re.+ (re.union (str.to.re "uu") (str.to.re "v"))) (re.++ (re.+ (re.+ (str.to.re "www"))) (re.++ (re.union (re.union (str.to.re "xxx") (str.to.re "yy")) (re.union (str.to.re "zz") (str.to.re "A"))) (re.++ (re.+ (re.+ (str.to.re "B"))) (re.++ (re.union (re.+ (str.to.re "CC")) (re.+ (str.to.re "D"))) (re.++ (re.+ (re.+ (str.to.re "EE"))) (re.++ (re.+ (re.* (str.to.re "FF"))) (re.++ (re.* (re.+ (str.to.re "GGG"))) (re.++ (re.union (re.* (str.to.re "HHH")) (re.* (str.to.re "III"))) (re.++ (re.* (re.union (str.to.re "J") (str.to.re "KK"))) (re.++ (re.* (re.+ (str.to.re "LL"))) (re.++ (re.+ (re.union (str.to.re "MMM") (str.to.re "N"))) (re.++ (re.* (re.+ (str.to.re "O"))) (re.++ (re.+ (re.* (str.to.re "PPP"))) (re.++ (re.+ (re.* (str.to.re "Q"))) (re.++ (re.+ (re.+ (str.to.re "RRR"))) (re.++ (re.+ (re.* (str.to.re "S"))) (re.++ (re.union (re.+ (str.to.re "TT")) (re.+ (str.to.re "U"))) (re.++ (re.union (re.+ (str.to.re "VV")) (re.+ (str.to.re "W"))) (re.++ (re.union (re.* (str.to.re "X")) (re.* (str.to.re "YYY"))) (re.++ (re.* (re.union (str.to.re "Z") (str.to.re "!"))) (re.++ (re.union (re.* (str.to.re """""")) (re.* (str.to.re "#"))) (re.++ (re.union (re.union (str.to.re "$$$") (str.to.re "%%%")) (re.union (str.to.re "&&") (str.to.re "''"))) (re.++ (re.* (re.* (str.to.re "((("))) (re.++ (re.* (re.+ (str.to.re ")))"))) (re.++ (re.union (re.+ (str.to.re "***")) (re.+ (str.to.re "+++"))) (re.++ (re.union (re.+ (str.to.re ",,")) (re.+ (str.to.re "-"))) (re.++ (re.union (re.* (str.to.re "..")) (re.* (str.to.re "///"))) (re.++ (re.+ (re.union (str.to.re ":") (str.to.re ";;"))) (re.++ (re.* (re.+ (str.to.re "<<"))) (re.++ (re.+ (re.+ (str.to.re "=="))) (re.++ (re.+ (re.union (str.to.re ">") (str.to.re "??"))) (re.++ (re.* (re.union (str.to.re "@@") (str.to.re "[["))) (re.++ (re.+ (re.* (str.to.re "\\\\"))) (re.++ (re.+ (re.* (str.to.re "]"))) (re.++ (re.* (re.* (str.to.re "^^"))) (re.++ (re.union (re.+ (str.to.re "___")) (re.+ (str.to.re "``"))) (re.++ (re.* (re.union (str.to.re "{") (str.to.re "|"))) (re.++ (re.* (re.union (str.to.re "}}") (str.to.re "~"))) (re.++ (re.union (re.* (str.to.re "0")) (re.* (str.to.re "1"))) (re.++ (re.* (re.union (str.to.re "222") (str.to.re "3"))) (re.++ (re.union (re.+ (str.to.re "4")) (re.+ (str.to.re "5"))) (re.++ (re.union (re.* (str.to.re "6")) (re.* (str.to.re "77"))) (re.++ (re.* (re.* (str.to.re "888"))) (re.++ (re.union (re.union (str.to.re "9") (str.to.re "aaa")) (re.union (str.to.re "b") (str.to.re "c"))) (re.++ (re.union (re.union (str.to.re "d") (str.to.re "e")) (re.union (str.to.re "fff") (str.to.re "g"))) (re.++ (re.union (re.+ (str.to.re "hh")) (re.+ (str.to.re "ii"))) (re.++ (re.* (re.* (str.to.re "jjj"))) (re.++ (re.+ (re.union (str.to.re "kkk") (str.to.re "lll"))) (re.++ (re.union (re.* (str.to.re "mm")) (re.* (str.to.re "nnn"))) (re.++ (re.* (re.* (str.to.re "ooo"))) (re.++ (re.union (re.union (str.to.re "pp") (str.to.re "qqq")) (re.union (str.to.re "r") (str.to.re "s"))) (re.++ (re.* (re.union (str.to.re "ttt") (str.to.re "u"))) (re.++ (re.* (re.* (str.to.re "v"))) (re.++ (re.+ (re.union (str.to.re "w") (str.to.re "xxx"))) (re.++ (re.* (re.+ (str.to.re "yyy"))) (re.++ (re.* (re.union (str.to.re "zz") (str.to.re "AAA"))) (re.++ (re.union (re.* (str.to.re "BB")) (re.* (str.to.re "CCC"))) (re.++ (re.* (re.+ (str.to.re "DDD"))) (re.++ (re.union (re.* (str.to.re "EE")) (re.* (str.to.re "F"))) (re.++ (re.* (re.* (str.to.re "GG"))) (re.++ (re.* (re.* (str.to.re "HH"))) (re.++ (re.+ (re.* (str.to.re "II"))) (re.++ (re.union (re.union (str.to.re "JJ") (str.to.re "K")) (re.union (str.to.re "L") (str.to.re "MMM"))) (re.++ (re.+ (re.+ (str.to.re "NN"))) (re.++ (re.+ (re.union (str.to.re "O") (str.to.re "PP"))) (re.++ (re.* (re.union (str.to.re "QQQ") (str.to.re "R"))) (re.++ (re.union (re.* (str.to.re "SS")) (re.* (str.to.re "TT"))) (re.++ (re.* (re.* (str.to.re "U"))) (re.++ (re.union (re.+ (str.to.re "V")) (re.+ (str.to.re "WWW"))) (re.++ (re.* (re.+ (str.to.re "XXX"))) (re.++ (re.+ (re.union (str.to.re "YYY") (str.to.re "Z"))) (re.++ (re.* (re.union (str.to.re "!!!") (str.to.re """"))) (re.+ (re.union (str.to.re "###") (str.to.re "$")))))))))))))))))))))))))))))))))))))))))))))))))))))))))))))))))))))))))))))))))))))))))))))))
(assert (not (str.in.re var0 (re.++ (re.* (re.+ (str.to.re "000"))) (re.++ (re.+ (re.+ (str.to.re "11"))) (re.++ (re.union (re.+ (str.to.re "2")) (re.+ (str.to.re "3"))) (re.++ (re.* (re.+ (str.to.re "444"))) (re.++ (re.+ (re.* (str.to.re "55"))) (re.++ (re.* (re.+ (str.to.re "666"))) (re.++ (re.+ (re.+ (str.to.re "777"))) (re.++ (re.union (re.* (str.to.re "8")) (re.* (str.to.re "999"))) (re.++ (re.union (re.union (str.to.re "aa") (str.to.re "b")) (re.union (str.to.re "ccc") (str.to.re "ddd"))) (re.++ (re.union (re.* (str.to.re "eee")) (re.* (str.to.re "ff"))) (re.++ (re.* (re.+ (str.to.re "gg"))) (re.++ (re.* (re.+ (str.to.re "hh"))) (re.++ (re.union (re.+ (str.to.re "ii")) (re.+ (str.to.re "j"))) (re.++ (re.+ (re.+ (str.to.re "k"))) (re.++ (re.union (re.* (str.to.re "lll")) (re.* (str.to.re "m"))) (re.++ (re.* (re.union (str.to.re "nnn") (str.to.re "o"))) (re.++ (re.+ (re.* (str.to.re "p"))) (re.++ (re.* (re.+ (str.to.re "qqq"))) (re.++ (re.+ (re.union (str.to.re "rrr") (str.to.re "sss"))) (re.++ (re.union (re.* (str.to.re "t")) (re.* (str.to.re "uu"))) (re.++ (re.union (re.+ (str.to.re "vv")) (re.+ (str.to.re "www"))) (re.++ (re.* (re.union (str.to.re "xx") (str.to.re "yy"))) (re.++ (re.+ (re.+ (str.to.re "z"))) (re.++ (re.union (re.union (str.to.re "A") (str.to.re "BBB")) (re.union (str.to.re "CCC") (str.to.re "D"))) (re.++ (re.+ (re.+ (str.to.re "EE"))) (re.++ (re.* (re.* (str.to.re "FF"))) (re.++ (re.+ (re.* (str.to.re "GG"))) (re.++ (re.+ (re.* (str.to.re "HHH"))) (re.++ (re.* (re.union (str.to.re "III") (str.to.re "J"))) (re.++ (re.* (re.+ (str.to.re "KKK"))) (re.++ (re.+ (re.union (str.to.re "LLL") (str.to.re "MMM"))) (re.++ (re.union (re.+ (str.to.re "NN")) (re.+ (str.to.re "OO"))) (re.++ (re.union (re.* (str.to.re "P")) (re.* (str.to.re "QQQ"))) (re.++ (re.+ (re.union (str.to.re "R") (str.to.re "SS"))) (re.++ (re.union (re.+ (str.to.re "T")) (re.+ (str.to.re "U"))) (re.++ (re.+ (re.union (str.to.re "VV") (str.to.re "WW"))) (re.++ (re.union (re.union (str.to.re "X") (str.to.re "Y")) (re.union (str.to.re "Z") (str.to.re "!"))) (re.++ (re.+ (re.* (str.to.re """"""))) (re.++ (re.+ (re.* (str.to.re "###"))) (re.++ (re.* (re.union (str.to.re "$$$") (str.to.re "%%"))) (re.++ (re.* (re.+ (str.to.re "&&&"))) (re.++ (re.+ (re.+ (str.to.re "'''"))) (re.++ (re.+ (re.+ (str.to.re "("))) (re.++ (re.* (re.* (str.to.re ")))"))) (re.++ (re.* (re.* (str.to.re "***"))) (re.++ (re.* (re.union (str.to.re "+++") (str.to.re ",,"))) (re.++ (re.* (re.* (str.to.re "---"))) (re.++ (re.union (re.+ (str.to.re ".")) (re.+ (str.to.re "//"))) (re.++ (re.* (re.* (str.to.re ":"))) (re.++ (re.union (re.+ (str.to.re ";;;")) (re.+ (str.to.re "<<"))) (re.++ (re.union (re.* (str.to.re "==")) (re.* (str.to.re ">>"))) (re.++ (re.union (re.* (str.to.re "??")) (re.* (str.to.re "@@"))) (re.++ (re.* (re.+ (str.to.re "[[["))) (re.++ (re.union (re.union (str.to.re "\\") (str.to.re "]]")) (re.union (str.to.re "^") (str.to.re "_"))) (re.++ (re.union (re.* (str.to.re "``")) (re.* (str.to.re "{"))) (re.++ (re.union (re.union (str.to.re "|") (str.to.re "}")) (re.union (str.to.re "~~~") (str.to.re "000"))) (re.++ (re.+ (re.union (str.to.re "11") (str.to.re "2"))) (re.++ (re.union (re.* (str.to.re "33")) (re.* (str.to.re "44"))) (re.++ (re.union (re.* (str.to.re "555")) (re.* (str.to.re "66"))) (re.++ (re.union (re.* (str.to.re "7")) (re.* (str.to.re "8"))) (re.++ (re.union (re.+ (str.to.re "999")) (re.+ (str.to.re "a"))) (re.++ (re.* (re.union (str.to.re "bb") (str.to.re "cc"))) (re.++ (re.* (re.+ (str.to.re "ddd"))) (re.++ (re.+ (re.* (str.to.re "ee"))) (re.++ (re.+ (re.* (str.to.re "f"))) (re.++ (re.* (re.union (str.to.re "ggg") (str.to.re "hh"))) (re.++ (re.* (re.union (str.to.re "iii") (str.to.re "j"))) (re.++ (re.* (re.union (str.to.re "k") (str.to.re "l"))) (re.++ (re.union (re.union (str.to.re "m") (str.to.re "nn")) (re.union (str.to.re "o") (str.to.re "p"))) (re.++ (re.+ (re.* (str.to.re "q"))) (re.++ (re.* (re.+ (str.to.re "rr"))) (re.++ (re.union (re.+ (str.to.re "sss")) (re.+ (str.to.re "t"))) (re.++ (re.* (re.* (str.to.re "uu"))) (re.++ (re.union (re.+ (str.to.re "vvv")) (re.+ (str.to.re "ww"))) (re.++ (re.* (re.* (str.to.re "xx"))) (re.++ (re.* (re.+ (str.to.re "y"))) (re.++ (re.* (re.union (str.to.re "z") (str.to.re "A"))) (re.++ (re.+ (re.union (str.to.re "BB") (str.to.re "CCC"))) (re.++ (re.+ (re.* (str.to.re "DD"))) (re.++ (re.+ (re.+ (str.to.re "EE"))) (re.++ (re.union (re.+ (str.to.re "FF")) (re.+ (str.to.re "GGG"))) (re.++ (re.union (re.union (str.to.re "HHH") (str.to.re "I")) (re.union (str.to.re "JJ") (str.to.re "KKK"))) (re.++ (re.+ (re.union (str.to.re "L") (str.to.re "M"))) (re.++ (re.* (re.* (str.to.re "N"))) (re.++ (re.+ (re.* (str.to.re "OOO"))) (re.++ (re.+ (re.* (str.to.re "PP"))) (re.++ (re.+ (re.union (str.to.re "Q") (str.to.re "RRR"))) (re.++ (re.union (re.union (str.to.re "SS") (str.to.re "T")) (re.union (str.to.re "UU") (str.to.re "VV"))) (re.++ (re.+ (re.+ (str.to.re "WW"))) (re.++ (re.+ (re.* (str.to.re "XX"))) (re.union (re.+ (str.to.re "YYY")) (re.+ (str.to.re "ZZ"))))))))))))))))))))))))))))))))))))))))))))))))))))))))))))))))))))))))))))))))))))))))))))))))
(check-sat)